c [MSE2022] -- begin -- [MSE2022]
0.00/0.01	c
0.00/0.01	c NuWLS based on TT-Open-WBO-Inc:	 an Anytime MaxSAT Solver --- based on Glucose4.1 (core version)
0.00/0.01	c Version:	 MaxSAT Evaluation 2021
0.00/0.01	c Author of NuWLS:	 Yi Chu, Xiang He
0.00/0.01	c Author of TT-Open-WBO-Inc:	 Alexander Nadel
0.00/0.01	c Authors of the baseline solver Open-WBO-Inc:	 Saurabh Joshi, Prateek Kumar, Ruben Martins, Sukrut Rao
0.00/0.01	c WARNING: for repeatability, setting FPU to use double precision
0.00/0.01	c |                                                                                                       |
0.00/0.01	c ========================================[ Problem Statistics ]===========================================
0.00/0.01	c |                                                                                                       |
0.00/0.01	c |  Problem Format:             MaxSAT                                                                   |
0.00/0.01	c |  Problem Type:           Unweighted                                                                   |
0.00/0.01	c |  Number of variables:          1173                                                                   |
0.00/0.01	c |  Number of hard clauses:          0                                                                   |
0.00/0.01	c |  Number of soft clauses:       9685                                                                   |
0.00/0.01	c |  Number of cardinality:           0                                                                   |
0.00/0.01	c |  Number of PB :                   0                                                                   |
0.00/0.01	c |  Parse time:                   0.00 s                                                                 |
0.00/0.01	c |                                                                                                       |
0.00/0.01	c | best-alg-selector overriden target_vars_bump_val to 0, since it hadn't been set by the user |
0.00/0.01	c | best-alg-selector overriden ms_model_per_sec_thr to 2, since it hadn't been set by the user |
0.00/0.01	c | best-alg-selector overriden ms_mutation_classes to 0, since it hadn't been set by the user |
0.00/0.01	c | best-alg-selector overriden ms_chrono to 100, since it hadn't been set by the user |
0.00/0.01	c ==========================================[ Solver Settings ]============================================
0.00/0.01	c |                                                                                                       |
0.00/0.01	c |  Algorithm:                     OBV                                                                   |
0.00/0.01	c |  Cardinality Encoding:       Modulo Totalizer                                                         |
0.00/0.01	c |  Limit number conflicts:       1000                                                                   |
0.00/0.01	c |  Limit number iterations: 2147483647                                                                   |
0.00/0.01	c |  Global limit number conflicts:   F                                                                   |
0.00/0.01	c |                                                                                                       |
0.00/0.01	c Mrs. Beaver incomplete stage
0.00/0.01	o 1937
0.00/0.01	c total_lit_count 20543
0.00/0.01	c before build neighbor
0.00/0.01	c build instime is 0
0.00/0.01	c using neighbor 
0.00/0.01	c build NuWLS instance done!
0.00/0.01	c changing to NuWLS solver!!!
0.00/0.01	c problem weighted = 0
0.00/0.01	o 1937
0.00/0.01	o 1933
0.00/0.01	o 1924
0.00/0.01	o 1918
0.00/0.01	o 1913
0.00/0.01	o 1908
0.00/0.01	o 1903
0.00/0.01	o 1899
0.00/0.01	o 1893
0.00/0.01	o 1887
0.00/0.01	o 1882
0.00/0.01	o 1877
0.00/0.01	o 1872
0.00/0.01	o 1868
0.00/0.01	o 1864
0.00/0.01	o 1860
0.00/0.01	o 1856
0.00/0.01	o 1852
0.00/0.01	o 1848
0.00/0.01	o 1844
0.00/0.01	o 1840
0.00/0.01	o 1836
0.00/0.01	o 1832
0.00/0.01	o 1828
0.00/0.01	o 1823
0.00/0.01	o 1819
0.00/0.01	o 1815
0.00/0.01	o 1811
0.00/0.01	o 1807
0.00/0.01	o 1803
0.00/0.01	o 1799
0.00/0.01	o 1795
0.00/0.01	o 1791
0.00/0.01	o 1787
0.00/0.01	o 1784
0.00/0.01	o 1780
0.00/0.01	o 1776
0.00/0.01	o 1773
0.00/0.02	o 1770
0.00/0.02	o 1766
0.00/0.02	o 1763
0.00/0.02	o 1760
0.00/0.02	o 1757
0.00/0.02	o 1754
0.00/0.02	o 1751
0.00/0.02	o 1748
0.00/0.02	o 1745
0.00/0.02	o 1742
0.00/0.02	o 1739
0.00/0.02	o 1735
0.00/0.02	o 1732
0.00/0.02	o 1729
0.00/0.02	o 1726
0.00/0.02	o 1722
0.00/0.02	o 1719
0.00/0.02	o 1716
0.00/0.02	o 1713
0.00/0.02	o 1710
0.00/0.02	o 1707
0.00/0.02	o 1704
0.00/0.02	o 1701
0.00/0.02	o 1698
0.00/0.02	o 1695
0.00/0.02	o 1692
0.00/0.02	o 1689
0.00/0.02	o 1686
0.00/0.02	o 1683
0.00/0.02	o 1680
0.00/0.02	o 1677
0.00/0.02	o 1674
0.00/0.02	o 1671
0.00/0.02	o 1667
0.00/0.02	o 1664
0.00/0.02	o 1661
0.00/0.02	o 1659
0.00/0.02	o 1657
0.00/0.02	o 1655
0.00/0.02	o 1653
0.00/0.02	o 1651
0.00/0.02	o 1648
0.00/0.02	o 1646
0.00/0.02	o 1642
0.00/0.02	o 1640
0.00/0.02	o 1637
0.00/0.02	o 1635
0.00/0.02	o 1633
0.00/0.02	o 1631
0.00/0.02	o 1628
0.00/0.02	o 1626
0.00/0.02	o 1624
0.00/0.02	o 1622
0.00/0.02	o 1620
0.00/0.02	o 1618
0.00/0.02	o 1616
0.00/0.02	o 1614
0.00/0.02	o 1611
0.00/0.03	o 1609
0.00/0.03	o 1607
0.00/0.03	o 1604
0.00/0.03	o 1602
0.00/0.03	o 1600
0.00/0.03	o 1598
0.00/0.03	o 1596
0.00/0.03	o 1594
0.00/0.03	o 1592
0.00/0.03	o 1590
0.00/0.03	o 1588
0.00/0.03	o 1586
0.00/0.03	o 1584
0.00/0.03	o 1582
0.00/0.03	o 1580
0.00/0.03	o 1578
0.00/0.03	o 1576
0.00/0.03	o 1574
0.00/0.03	o 1572
0.00/0.03	o 1570
0.00/0.03	o 1568
0.00/0.03	o 1566
0.00/0.03	o 1564
0.00/0.03	o 1562
0.00/0.03	o 1560
0.00/0.03	o 1558
0.00/0.03	o 1556
0.00/0.03	o 1554
0.00/0.03	o 1552
0.00/0.03	o 1550
0.00/0.03	o 1548
0.00/0.03	o 1546
0.00/0.03	o 1544
0.00/0.03	o 1542
0.00/0.03	o 1540
0.00/0.03	o 1538
0.00/0.03	o 1535
0.00/0.03	o 1533
0.00/0.03	o 1531
0.00/0.03	o 1529
0.00/0.03	o 1527
0.00/0.03	o 1524
0.00/0.03	o 1522
0.00/0.03	o 1520
0.00/0.03	o 1518
0.00/0.03	o 1516
0.00/0.03	o 1514
0.00/0.03	o 1512
0.00/0.03	o 1510
0.00/0.03	o 1508
0.00/0.03	o 1506
0.00/0.03	o 1504
0.00/0.03	o 1502
0.00/0.03	o 1500
0.00/0.03	o 1498
0.00/0.03	o 1497
0.00/0.03	o 1494
0.00/0.03	o 1492
0.00/0.03	o 1491
0.00/0.04	o 1488
0.00/0.04	o 1487
0.00/0.04	o 1485
0.00/0.04	o 1483
0.00/0.04	o 1482
0.00/0.04	o 1481
0.00/0.04	o 1479
0.00/0.04	o 1477
0.00/0.04	o 1476
0.00/0.04	o 1474
0.00/0.04	o 1473
0.00/0.04	o 1472
0.00/0.04	o 1471
0.00/0.04	o 1469
0.00/0.04	o 1468
0.00/0.04	o 1467
0.00/0.04	o 1466
0.00/0.04	o 1465
0.00/0.04	o 1464
0.00/0.04	o 1463
0.00/0.04	o 1462
0.00/0.04	o 1461
0.00/0.04	o 1460
0.00/0.04	o 1459
0.00/0.04	o 1457
0.00/0.04	o 1456
0.00/0.04	o 1455
0.00/0.04	o 1454
0.00/0.04	o 1453
0.00/0.04	o 1452
0.00/0.04	o 1450
0.00/0.04	o 1448
0.00/0.04	o 1447
0.00/0.04	o 1446
0.00/0.04	o 1445
0.00/0.04	o 1443
0.00/0.04	o 1442
0.00/0.04	o 1441
0.00/0.04	o 1440
0.00/0.04	o 1439
0.00/0.04	o 1438
0.00/0.04	o 1437
0.00/0.04	o 1436
0.00/0.04	o 1435
0.00/0.04	o 1434
0.00/0.04	o 1433
0.00/0.04	o 1432
0.00/0.04	o 1431
0.00/0.04	o 1430
0.00/0.04	o 1429
0.00/0.04	o 1428
0.00/0.04	o 1427
0.00/0.04	o 1426
0.00/0.04	o 1424
0.00/0.04	o 1423
0.00/0.04	o 1422
0.00/0.04	o 1421
0.00/0.04	o 1419
0.00/0.04	o 1418
0.00/0.04	o 1417
0.00/0.04	o 1415
0.00/0.05	o 1414
0.00/0.05	o 1412
0.00/0.05	o 1411
0.00/0.05	o 1410
0.00/0.05	o 1409
0.00/0.05	o 1408
0.00/0.05	o 1406
0.00/0.05	o 1405
0.00/0.05	o 1402
0.00/0.05	o 1401
0.00/0.05	o 1400
0.00/0.05	o 1398
0.00/0.05	o 1396
0.00/0.05	o 1395
0.00/0.05	o 1394
0.00/0.05	o 1393
0.00/0.05	o 1390
0.00/0.05	o 1389
0.00/0.05	o 1388
0.00/0.05	o 1387
0.00/0.05	o 1386
0.00/0.05	o 1385
0.00/0.05	o 1384
0.00/0.05	o 1383
0.00/0.05	o 1382
0.00/0.05	o 1381
0.00/0.05	o 1380
0.00/0.05	o 1379
0.00/0.05	o 1377
0.00/0.05	o 1376
0.00/0.05	o 1375
0.00/0.05	o 1374
0.00/0.05	o 1373
0.00/0.05	o 1372
0.00/0.05	o 1371
0.00/0.05	o 1370
0.00/0.05	o 1369
0.00/0.05	o 1368
0.00/0.05	o 1367
0.00/0.05	o 1366
0.00/0.05	o 1365
0.00/0.05	o 1364
0.00/0.05	o 1363
0.00/0.05	o 1362
0.00/0.05	o 1361
0.00/0.05	o 1360
0.00/0.05	o 1359
0.00/0.05	o 1357
0.00/0.05	o 1356
0.00/0.05	o 1355
0.00/0.05	o 1354
0.00/0.05	o 1353
0.00/0.05	o 1352
0.00/0.05	o 1351
0.00/0.05	o 1350
0.00/0.05	o 1349
0.00/0.05	o 1348
0.00/0.05	o 1347
0.00/0.05	o 1346
0.00/0.05	o 1344
0.00/0.05	o 1343
0.00/0.06	o 1341
0.00/0.06	o 1340
0.00/0.06	o 1338
0.00/0.06	o 1337
0.00/0.06	o 1336
0.00/0.06	o 1335
0.00/0.06	o 1334
0.00/0.06	o 1333
0.00/0.06	o 1332
0.00/0.06	o 1331
0.00/0.06	o 1330
0.00/0.06	o 1329
0.00/0.06	o 1328
0.00/0.06	o 1326
0.00/0.06	o 1325
0.00/0.06	o 1324
0.00/0.06	o 1323
0.00/0.06	o 1321
0.00/0.06	o 1320
0.00/0.06	o 1319
0.00/0.06	o 1318
0.00/0.06	o 1316
0.00/0.06	o 1315
0.00/0.06	o 1314
0.00/0.06	o 1313
0.00/0.06	o 1312
0.00/0.06	o 1311
0.00/0.06	o 1310
0.00/0.06	o 1309
0.00/0.06	o 1308
0.00/0.06	o 1307
0.00/0.06	o 1306
0.00/0.06	o 1305
0.00/0.06	o 1304
0.00/0.06	o 1303
0.00/0.06	o 1302
0.00/0.06	o 1301
0.00/0.06	o 1300
0.00/0.06	o 1299
0.00/0.06	o 1297
0.00/0.06	o 1296
0.00/0.06	o 1295
0.00/0.06	o 1294
0.00/0.06	o 1293
0.00/0.06	o 1292
0.00/0.06	o 1291
0.00/0.06	o 1290
0.00/0.06	o 1289
0.00/0.06	o 1288
0.00/0.06	o 1287
0.00/0.06	o 1285
0.00/0.06	o 1284
0.00/0.06	o 1283
0.00/0.06	o 1282
0.00/0.06	o 1281
0.00/0.06	o 1279
0.00/0.06	o 1278
0.00/0.06	o 1277
0.00/0.06	o 1275
0.00/0.06	o 1274
0.00/0.06	o 1273
0.00/0.07	o 1272
0.00/0.07	o 1271
0.00/0.07	o 1270
0.00/0.07	o 1269
0.00/0.07	o 1268
0.00/0.07	o 1266
0.00/0.07	o 1265
0.00/0.07	o 1264
0.00/0.07	o 1263
0.00/0.07	o 1262
0.00/0.07	o 1261
0.00/0.07	o 1260
0.00/0.07	o 1259
0.00/0.07	o 1258
0.00/0.07	o 1257
0.00/0.07	o 1256
0.00/0.07	o 1255
0.00/0.07	o 1254
0.00/0.07	o 1252
0.00/0.07	o 1251
0.00/0.07	o 1250
0.00/0.07	o 1249
0.00/0.07	o 1248
0.00/0.07	o 1247
0.00/0.07	o 1245
0.00/0.07	o 1244
0.00/0.07	o 1243
0.00/0.07	o 1242
0.00/0.07	o 1241
0.00/0.07	o 1240
0.00/0.07	o 1239
0.00/0.07	o 1238
0.00/0.07	o 1237
0.00/0.07	o 1236
0.00/0.07	o 1235
0.00/0.07	o 1234
0.00/0.07	o 1233
0.00/0.07	o 1232
0.00/0.07	o 1231
0.00/0.07	o 1230
0.00/0.07	o 1229
0.00/0.07	o 1228
0.00/0.07	o 1227
0.00/0.07	o 1226
0.00/0.07	o 1225
0.00/0.07	o 1224
0.00/0.07	o 1222
0.00/0.07	o 1221
0.00/0.07	o 1220
0.00/0.07	o 1219
0.00/0.07	o 1218
0.00/0.07	o 1217
0.00/0.07	o 1216
0.00/0.07	o 1215
0.00/0.07	o 1214
0.00/0.07	o 1213
0.00/0.07	o 1212
0.00/0.07	o 1211
0.00/0.07	o 1210
0.00/0.07	o 1209
0.00/0.07	o 1208
0.00/0.08	o 1207
0.00/0.08	o 1206
0.00/0.08	o 1205
0.00/0.08	o 1204
0.00/0.08	o 1203
0.00/0.08	o 1202
0.09/0.09	s SATISFIABLE
0.09/0.09	o 1202 
0.09/0.09	v 110011001110010111101110001011001100101001001001001010101111000101100111000111111001011101101101010001110001001101100101101000011100110101011101111011001000100010111110001110101010000001100111111001111111001001010101011111110110000000011010110010100111001000110111010110111001010000110011100010111010110001000000101010111010000010100010011000010111100110110011111101000011100110100000100101101001111100011111101001110111011110011011111101110110101011000000010000111100101111001101110001100101010110001000111001111101111010001010110101001010001101011110100100000101000101111011111000011101110010110110010000100110110111111000010101010011000001001011011100110111100111011001000010100100011101100010001011110001111101100000010100010000101001011000001000010000100101101110110001000011100001111110101111001110100000101110101011100111001011011000011101001000101110100010100000110111000111100110000101111001101001001100011101000101100100000000001001011001110101000001110111001000110001100111010100100110101110000000011011100011101110010011001000001001010101100110000011011010010100100110010101111110010000000000010110111001010010101110011100110010110001010010110010100111011110110
c [MSE2022] -- end -- [MSE2022]
